alpha = 0.22;
n =  55 ;
%   solution = [<>,<>,<>,<>,<>,<>,<>,<>,<>,<>,<>,<>,<>,<>,<>,<>,<>, <>,<>,<>, <>, <>, <>, <>,<>, <>, <>, <>,<>, <>,<>,<>,<>, <>,<>, <>, <>,<>,<>, <>, <>,<>,<>,<>, <>, <>, <>,<>,<>, <>,<>, <>, <>, <>,<>];
% solution = [1, 2, 2, 3, 4, 5, 6, 1, 6, 7, 4, 5, 1, 8, 6, 7, 9, 10, 7, 5, 11, 12, 13, 16, 11, 17, 14, 16, 5, 13, 7, 5, 4, 13, 9, 13, 16, 9, 6, 15, 18, 6,12, 6, 17, 18, 14,11, 12, 15, 8, 15, 17, 18, 7]; % change value
% solution = [1, 5, 5, 6, 7, 8, 9, 4, 9,10, 7, 8, 4,11, 9,10,12, 13,10, 8, 14, 15, 16, 16, 8, 14, 11, 13, 2, 10, 4, 2, <>, <>, <>, <>, <>, <>, <>, <>, <>, <>,<>, <>, <>, <>, <>, <>, <>, <>, <>, <>, <>, <>,<>]; % missing values and change values

solution = [1, 2, 2, 3, 4, 5, 6, 1, 6, 7, 4, 5, 1, 8, 6, 7, 9, 10, 7, 5, 11, 12, 13, 13, 8, 14, 11, 13, 2, 10, 4, 2, 1, 10, 6, 10, 13, 6, 3, 12, 15, 3, 9, 3, 14, 15, 11, 8, 9, 12, 5, 12, 14, 15, 4];

e =  1065 ;
E = [| 1 , 2 ,
| 1 , 3 ,
| 1 , 4 ,
| 1 , 5 ,
| 1 , 6 ,
| 1 , 7 ,
| 1 , 9 ,
| 1 , 11 ,
| 1 , 12 ,
| 1 , 14 ,
| 1 , 16 ,
| 1 , 17 ,
| 1 , 19 ,
| 1 , 20 ,
| 1 , 21 ,
| 1 , 23 ,
| 1 , 24 ,
| 1 , 26 ,
| 1 , 29 ,
| 1 , 30 ,
| 1 , 31 ,
| 1 , 32 ,
| 1 , 34 ,
| 1 , 35 ,
| 1 , 36 ,
| 1 , 38 ,
| 1 , 40 ,
| 1 , 41 ,
| 1 , 42 ,
| 1 , 43 ,
| 1 , 44 ,
| 1 , 45 ,
| 1 , 46 ,
| 1 , 47 ,
| 1 , 48 ,
| 1 , 50 ,
| 1 , 51 ,
| 1 , 52 ,
| 1 , 53 ,
| 1 , 54 ,
| 2 , 5 ,
| 2 , 6 ,
| 2 , 7 ,
| 2 , 8 ,
| 2 , 10 ,
| 2 , 11 ,
| 2, 12,
| 2 , 13 ,
| 2 , 14 ,
| 2 , 15 ,
| 2 , 16 ,
| 2 , 17 ,
| 2 , 18 ,
| 2 , 19 ,
| 2 , 20 ,
| 2 , 22 ,
| 2 , 23 ,
| 2 , 24 ,
| 2 , 25 ,
| 2 , 26 ,
| 2 , 27 ,
| 2 , 31 ,
| 2 , 33 ,
| 2 , 36 ,
| 2 , 37 ,
| 2 , 38 ,
| 2 , 39 ,
| 2 , 40 ,
| 2 , 41 ,
| 2 , 42 ,
| 2 , 43 ,
| 2 , 45 ,
| 2 , 46 ,
| 2 , 47 ,
| 2 , 48 ,
| 2 , 50 ,
| 2 , 51 ,
| 2 , 55 ,
| 3 , 4 ,
| 3 , 5 ,
| 3 , 6 ,
| 3 , 8 ,
| 3 , 9 ,
| 3 , 10 ,
| 3 , 11 ,
| 3 , 12 ,
| 3 , 13 ,
| 3 , 14 ,
| 3 , 15 ,
| 3 , 18 ,
| 3 , 20 ,
| 3 , 21 ,
| 3 , 24 ,
| 3 , 25 ,
| 3 , 26 ,
| 3 , 27 ,
| 3 , 28 ,
| 3 , 30 ,
| 3, 33,
| 3 , 34 ,
| 3 , 35 ,
| 3 , 36 ,
| 3 , 37 ,
| 3 , 38 ,
| 3 , 39 ,
| 3 , 41 ,
| 3 , 43 ,
| 3 , 44 ,
| 3 , 45 ,
| 3 , 47 ,
| 3 , 48 ,
| 3 , 49 ,
| 3 , 50 ,
| 3 , 51 ,
| 3 , 52 ,
| 3 , 53 ,
| 3 , 54 ,
| 3 , 55 ,
| 4 , 5 ,
| 4 , 6 ,
| 4 , 7 ,
| 4 , 8 ,
| 4 , 9 ,
| 4 , 10 ,
| 4 , 11 ,
|4 , 13,
| 4 , 12 ,
| 4 , 14 ,
| 4 , 16 ,
| 4 , 17 ,
| 4 , 18 ,
| 4 , 19 ,
| 4 , 20 ,
| 4 , 21 ,
| 4 , 22 ,
| 4 , 23 ,
| 4 , 24 ,
| 4 , 25 ,
| 4 , 26 ,
| 4 , 27 ,
| 4 , 28 ,
| 4 , 29 ,
| 4 , 30 ,
| 4 , 31 ,
| 4 , 33 ,
| 4 , 34 ,
| 4 , 35 ,
| 4 , 37 ,
| 4 , 40 ,
| 4 , 41 ,
| 4 , 43 ,
| 4 , 45 ,
| 4 , 46 ,
| 4 , 47 ,
| 4 , 48 ,
| 4 , 49 ,
| 4 , 51 ,
| 4 , 52 ,
| 4 , 53 ,
| 4 , 54 ,
| 4 , 55 ,
| 5 , 6 ,
| 5 , 7 ,
| 5 , 9 ,
| 5 , 10 ,
| 5 , 14 ,
| 5 , 16 ,
| 5 , 17 ,
| 5 , 18 ,
| 5 , 19 ,
| 5 , 21 ,
| 5 , 24 ,
| 5 , 25 ,
| 5 , 26 ,
| 5 , 27 ,
| 5 , 28 ,
| 5 , 29 ,
| 5 , 30 ,
|5,31,
| 5 , 32 ,
| 5 , 33 ,
| 5 , 36 ,
| 5 , 37 ,
| 5 , 38 ,
| 5 , 39 ,
| 5 , 40 ,
| 5 , 41 ,
| 5 , 42 ,
| 5 , 44 ,
| 5 , 45 ,
|5,46,
|5,47,
| 5 , 48 ,
| 5 , 49 ,
| 5 , 50 ,
| 5 , 53 ,
| 5 , 54 ,
| 6 , 7 ,
| 6 , 8 ,
| 6 , 9 ,
| 6 , 10 ,
| 6 , 11 ,
| 6 , 14 ,
| 6 , 17 ,
| 6 , 18 ,
| 6 , 21 ,
| 6 , 23 ,
| 6 , 24 ,
| 6 , 25 ,
| 6 , 26 ,
| 6 , 27 ,
| 6 , 28 ,
|6,29,
|6,30,
| 6 , 32 ,
| 6 , 36 ,
| 6 , 37 ,
| 6 , 39 ,
| 6 , 40 ,
| 6 , 41 ,
| 6 , 42 ,
| 6 , 43 ,
| 6 , 44 ,
| 6 , 45 ,
| 6 , 46 ,
| 6 , 47 ,
| 6 , 48 ,
| 6 , 49 ,
| 6 , 50 ,
| 6 , 52 ,
| 6 , 53 ,
| 6 , 54 ,
| 6 , 55 ,
| 7 , 8 ,
| 7 , 11 ,
| 7 , 12 ,
| 7 , 13 ,
| 7 , 14 ,
| 7 , 16 ,
| 7 , 17 ,
| 7 , 19 ,
| 7 , 21 ,
| 7 , 22 ,
| 7 , 23 ,
| 7 , 25 ,
| 7 , 28 ,
| 7 , 29 ,
| 7 , 30 ,
|7,31,
| 7 , 32 ,
| 7 , 33 ,
| 7 , 34 ,
| 7 , 36 ,
|7,37,
|7,38,
| 7 , 39 ,
| 7 , 40 ,
| 7 , 41 ,
| 7 , 43 ,
| 7 , 45 ,
| 7 , 47 ,
| 7 , 48 ,
| 7 , 49 ,
| 7 , 50 ,
| 7 , 52 ,
| 7 , 53 ,
| 7 , 55 ,
| 8 , 10 ,
| 8 , 12 ,
|8,13,
|8,14,
| 8 , 15 ,
| 8 , 16 ,
| 8 , 17 ,
| 8 , 18 ,
| 8 , 19 ,
| 8 , 20 ,
| 8 , 21 ,
| 8 , 22 ,
| 8 , 23 ,
| 8 , 24 ,
| 8 , 26 ,
| 8 , 27 ,
| 8 , 28 ,
| 8 , 29 ,
| 8 , 30 ,
| 8 , 31 ,
| 8 , 36 ,
| 8 , 37 ,
| 8 , 38 ,
| 8 , 39 ,
| 8 , 40 ,
| 8 , 41 ,
| 8 , 43 ,
| 8 , 44 ,
| 8 , 45 ,
| 8 , 47 ,
| 8 , 48 ,
| 8 , 49 ,
| 8 , 50 ,
| 8 , 53 ,
| 8 , 54 ,
| 9 , 10 ,
| 9 , 14 ,
| 9 , 16 ,
| 9 , 17 ,
| 9 , 18 ,
|9,19,
| 9 , 20 ,
| 9 , 21 ,
| 9 , 23 ,
| 9 , 24 ,
|9,25,
|9,26,
| 9 , 27 ,
| 9 , 28 ,
| 9 , 29 ,
| 9 , 30 ,
| 9 , 31 ,
| 9 , 33 ,
| 9 , 36 ,
| 9 , 37 ,
| 9 , 43 ,
| 9 , 44 ,
| 9 , 46 ,
| 9 , 47 ,
| 9 , 48 ,
| 9 , 50 ,
| 9 , 51 ,
| 9 , 52 ,
| 9 , 53 ,
| 9 , 54 ,
| 9 , 55 ,
| 10 , 11 ,
| 10 , 12 ,
| 10 , 13 ,
| 10 , 14 ,
| 10 , 20 ,
| 10 , 21 ,
| 10 , 22 ,
| 10 , 23 ,
| 10 , 24 ,
| 10 , 25 ,
| 10 , 28 ,
| 10 , 29 ,
|10,30,
| 10 , 31 ,
| 10 , 34 ,
| 10 , 35 ,
| 10 , 36 ,
| 10 , 37 ,
| 10 , 38 ,
| 10 , 39 ,
| 10 , 40 ,
| 10 , 41 ,
| 10 , 42 ,
| 10 , 43 ,
| 10 , 45 ,
| 10 , 46 ,
|10,47,
| 10 , 48 ,
| 10 , 50 ,
| 10 , 51 ,
| 10 , 52 ,
| 10 , 53 ,
| 10 , 54 ,
| 10 , 55 ,
| 11 , 12 ,
| 11 , 13 ,
| 11 , 14 ,
| 11 , 15 ,
| 11 , 17 ,
| 11 , 18 ,
| 11 , 19 ,
| 11 , 20 ,
| 11 , 21 ,
| 11 , 23 ,
| 11 , 24 ,
|11,25,
|11,26,
| 11 , 27 ,
| 11 , 28 ,
| 11 , 29 ,
| 11 , 30 ,
| 11 , 32 ,
| 11 , 33 ,
|11,34,
| 11 , 35 ,
| 11 , 38 ,
| 11 , 40 ,
| 11 , 41 ,
| 11 , 43 ,
| 11 , 44 ,
| 11 , 45 ,
| 11 , 49 ,
| 11 , 50 ,
| 11 , 51 ,
| 11 , 53 ,
| 11 , 54 ,
| 12 , 13 ,
| 12 , 14 ,
| 12 , 15 ,
| 12 , 16 ,
|12,17,
| 12 , 18 ,
| 12 , 19 ,
| 12 , 21 ,
| 12 , 23 ,
| 12 , 25 ,
| 12 , 26 ,
| 12 , 27 ,
| 12 , 28 ,
| 12 , 29 ,
| 12 , 30 ,
| 12 , 31 ,
|12,32,
| 12 , 35 ,
| 12 , 37 ,
| 12 , 38 ,
| 12 , 39 ,
| 12 , 41 ,
| 12 , 42 ,
| 12 , 43 ,
| 12 , 44 ,
| 12 , 46 ,
| 12 , 47 ,
| 12 , 48 ,
| 12 , 50 ,
| 12 , 54 ,
| 12 , 55 ,
| 13 , 14 ,
| 13 , 15 ,
| 13 , 16 ,
| 13 , 17 ,
| 13 , 18 ,
| 13 , 19 ,
| 13 , 22 ,
| 13 , 24 ,
| 13 , 25 ,
| 13 , 26 ,
| 13 , 27 ,
| 13 , 28 ,
| 13 , 29 ,
| 13 , 30 ,
| 13 , 32 ,
| 13 , 34 ,
| 13 , 35 ,
| 13 , 36 ,
| 13 , 38 ,
| 13 , 39 ,
| 13 , 40 ,
| 13 , 41 ,
| 13 , 42 ,
| 13 , 43 ,
| 13 , 44 ,
| 13 , 46 ,
| 13 , 48 ,
| 13 , 50 ,
| 13 , 51 ,
| 13 , 52 ,
| 13 , 53 ,
| 13 , 55 ,
| 14 , 15 ,
| 14 , 16 ,
| 14 , 17 ,
| 14 , 19 ,
| 14 , 20 ,
| 14 , 23 ,
| 14 , 24 ,
| 14 , 27 ,
| 14 , 28 ,
| 14 , 31 ,
| 14 , 33 ,
| 14 , 35 ,
| 14 , 36 ,
| 14 , 37 ,
| 14 , 38 ,
| 14 , 39 ,
| 14 , 40 ,
| 14 , 41 ,
| 14 , 42 ,
| 14 , 43 ,
| 14 , 45 ,
| 14 , 46 ,
| 14 , 49 ,
| 14 , 50 ,
| 14 , 51 ,
| 14 , 52 ,
| 14 , 54 ,
| 14 , 55 ,
| 15 , 17 ,
| 15 , 18 ,
| 15 , 20 ,
| 15 , 22 ,
| 15 , 24 ,
| 15 , 28 ,
| 15 , 29 ,
| 15 , 31 ,
| 15 , 32 ,
| 15 , 33 ,
| 15 , 34 ,
| 15 , 36 ,
| 15 , 37 ,
| 15 , 39 ,
| 15 , 41 ,
| 15 , 42 ,
| 15 , 43 ,
| 15 , 44 ,
| 15 , 45 ,
| 15 , 46 ,
| 15 , 47 ,
| 15 , 48 ,
| 15 , 49 ,
| 15 , 50 ,
| 15 , 51 ,
| 15 , 53 ,
| 15 , 54 ,
| 16 , 17 ,
| 16 , 18 ,
| 16 , 21 ,
| 16 , 22 ,
| 16 , 23 ,
| 16 , 25 ,
| 16 , 27 ,
| 16 , 28 ,
| 16 , 29 ,
| 16 , 30 ,
| 16 , 34 ,
| 16 , 35 ,
| 16 , 36 ,
| 16 , 37 ,
| 16 , 38 ,
| 16 , 42 ,
| 16 , 43 ,
| 16 , 44 ,
| 16 , 46 ,
| 16 , 47 ,
| 16 , 49 ,
| 16 , 50 ,
| 16 , 52 ,
| 16 , 55 ,
| 17 , 18 ,
| 17 , 20 ,
| 17 , 22 ,
| 17 , 23 ,
| 17 , 25 ,
| 17 , 26 ,
| 17 , 27 ,
| 17 , 30 ,
| 17 , 31 ,
| 17 , 32 ,
| 17 , 33 ,
| 17 , 34 ,
| 17 , 35 ,
| 17 , 36 ,
| 17 , 37 ,
| 17 , 38 ,
| 17 , 40 ,
| 17 , 41 ,
| 17 , 42 ,
| 17 , 44 ,
| 17 , 45 ,
| 17 , 46 ,
| 17 , 48 ,
| 17 , 50 ,
| 17 , 51 ,
| 17 , 53 ,
| 17 , 54 ,
| 17 , 55 ,
| 18 , 21 ,
| 18 , 23 ,
| 18 , 25 ,
| 18 , 26 ,
| 18 , 27 ,
| 18 , 28 ,
| 18 , 29 ,
| 18 , 31 ,
| 18 , 32 ,
| 18 , 33 ,
| 18 , 35 ,
| 18 , 38 ,
| 18 , 40 ,
| 18 , 43 ,
| 18 , 44 ,
| 18 , 45 ,
| 18 , 46 ,
| 18 , 47 ,
| 18 , 48 ,
| 18 , 49 ,
| 18 , 50 ,
| 18 , 51 ,
| 18 , 53 ,
| 18 , 54 ,
| 18 , 55 ,
| 19 , 20 ,
| 19 , 21 ,
| 19 , 22 ,
| 19 , 23 ,
| 19 , 25 ,
| 19 , 29 ,
| 19 , 30 ,
| 19 , 32 ,
| 19 , 33 ,
| 19 , 34 ,
| 19 , 35 ,
| 19 , 36 ,
| 19 , 37 ,
| 19 , 38 ,
| 19 , 39 ,
| 19 , 41 ,
| 19 , 42 ,
| 19 , 43 ,
| 19 , 44 ,
| 19 , 46 ,
| 19 , 48 ,
| 19 , 50 ,
| 19 , 51 ,
| 19 , 52 ,
| 19 , 53 ,
| 20 , 21 ,
| 20 , 22 ,
| 20 , 24 ,
| 20 , 25 ,
| 20 , 26 ,
| 20 , 27 ,
| 20 , 28 ,
| 20 , 29 ,
| 20 , 32 ,
| 20 , 34 ,
| 20 , 35 ,
| 20 , 36 ,
| 20 , 37 ,
| 20 , 39 ,
| 20 , 42 ,
| 20 , 43 ,
| 20 , 44 ,
| 20 , 45 ,
| 20 , 46 ,
| 20 , 50 ,
| 20 , 53 ,
| 20 , 54 ,
| 20 , 55 ,
| 21 , 22 ,
| 21 , 23 ,
| 21 , 24 ,
| 21 , 25 ,
| 21 , 26 ,
| 21 , 28 ,
| 21 , 29 ,
| 21 , 32 ,
| 21 , 34 ,
| 21 , 36 ,
| 21 , 37 ,
| 21 , 38 ,
| 21 , 39 ,
| 21 , 40 ,
| 21 , 41 ,
| 21 , 42 ,
| 21 , 43 ,
| 21 , 44 ,
| 21 , 45 ,
| 21 , 46 ,
| 21 , 48 ,
| 21 , 49 ,
| 21 , 52 ,
| 21 , 53 ,
| 21 , 54 ,
| 22 , 23 ,
| 22 , 24 ,
| 22 , 25 ,
| 22 , 26 ,
| 22 , 27 ,
| 22 , 28 ,
| 22 , 29 ,
| 22 , 31 ,
| 22 , 32 ,
| 22 , 33 ,
| 22 , 34 ,
| 22 , 35 ,
| 22 , 36 ,
| 22 , 38 ,
| 22 , 41 ,
| 22 , 42 ,
| 22 , 43 ,
| 22 , 45 ,
| 22 , 46 ,
| 22 , 48 ,
| 22 , 49 ,
| 22 , 51 ,
| 22 , 53 ,
| 22 , 54 ,
| 22 , 55 ,
| 23 , 25 ,
| 23 , 26 ,
| 23 , 27 ,
| 23 , 29 ,
| 23 , 30 ,
| 23 , 33 ,
| 23 , 34 ,
| 23 , 35 ,
| 23 , 36 ,
| 23 , 39 ,
| 23 , 40 ,
| 23 , 41 ,
| 23 , 42 ,
| 23 , 43 ,
| 23 , 45 ,
| 23 , 46 ,
| 23 , 48 ,
| 23 , 49 ,
| 23 , 50 ,
| 23 , 51 ,
| 23 , 52 ,
| 23 , 53 ,
| 23 , 54 ,
| 23 , 55 ,
| 24 , 25 ,
| 24 , 26 ,
| 24 , 27 ,
| 24 , 29 ,
| 24 , 30 ,
| 24 , 32 ,
| 24 , 33 ,
| 24 , 35 ,
| 24 , 36 ,
| 24 , 38 ,
| 24 , 40 ,
| 24 , 42 ,
| 24 , 43 ,
| 24 , 46 ,
| 24 , 48 ,
| 24 , 49 ,
| 24 , 50 ,
| 24 , 51 ,
| 24 , 52 ,
| 24 , 53 ,
| 24 , 54 ,
| 24 , 55 ,
| 25 , 27 ,
| 25 , 29 ,
| 25 , 31 ,
| 25 , 32 ,
| 25 , 33 ,
| 25 , 34 ,
| 25 , 35 ,
| 25 , 36 ,
| 25 , 37 ,
| 25 , 38 ,
| 25 , 40 ,
| 25 , 41 ,
| 25 , 42 ,
| 25 , 43 ,
| 25 , 45 ,
| 25 , 50 ,
| 25 , 51 ,
| 25 , 52 ,
| 25 , 54 ,
| 25 , 55 ,
| 26 , 27 ,
| 26 , 28 ,
| 26 , 30 ,
| 26 , 31 ,
| 26 , 32 ,
| 26 , 33 ,
| 26 , 34 ,
| 26 , 35 ,
| 26 , 37 ,
| 26 , 39 ,
| 26 , 40 ,
| 26 , 41 ,
| 26 , 42 ,
| 26 , 44 ,
| 26 , 46 ,
| 26 , 48 ,
| 26 , 50 ,
| 26 , 51 ,
| 26 , 52 ,
| 26 , 54 ,
| 26 , 55 ,
| 27 , 28 ,
| 27 , 29 ,
| 27 , 30 ,
| 27 , 31 ,
| 27 , 32 ,
| 27 , 33 ,
| 27 , 34 ,
| 27 , 35 ,
| 27 , 37 ,
| 27 , 38 ,
| 27 , 39 ,
| 27 , 40 ,
| 27 , 41 ,
| 27 , 44 ,
| 27 , 45 ,
| 27 , 46 ,
| 27 , 48 ,
| 27 , 49 ,
| 27 , 50 ,
| 27 , 51 ,
| 27 , 53 ,
| 27 , 54 ,
| 27 , 55 ,
| 28 , 30 ,
| 28 , 31 ,
| 28 , 32 ,
| 28 , 34 ,
| 28 , 36 ,
| 28 , 38 ,
| 28 , 39 ,
| 28 , 40 ,
| 28 , 41 ,
| 28 , 44 ,
| 28 , 45 ,
| 28 , 46 ,
| 28 , 47 ,
| 28 , 48 ,
| 28 , 49 ,
| 28 , 50 ,
| 28 , 51 ,
| 28 , 52 ,
| 28 , 55 ,
| 29 , 31 ,
| 29 , 33 ,
| 29 , 35 ,
| 29 , 37 ,
| 29 , 38 ,
| 29 , 41 ,
| 29 , 43 ,
| 29 , 44 ,
| 29 , 46 ,
| 29 , 47 ,
| 29 , 48 ,
| 29 , 49 ,
| 29 , 51 ,
| 29 , 52 ,
| 29 , 53 ,
| 29 , 55 ,
| 30 , 31 ,
| 30 , 32 ,
| 30 , 33 ,
| 30 , 35 ,
| 30 , 38 ,
| 30 , 39 ,
| 30 , 40 ,
| 30 , 41 ,
| 30 , 42 ,
| 30 , 43 ,
| 30 , 45 ,
| 30 , 46 ,
| 30 , 48 ,
| 30 , 49 ,
| 30 , 50 ,
| 30 , 51 ,
| 30 , 53 ,
| 30 , 54 ,
| 30 , 55 ,
| 31 , 32 ,
| 31 , 33 ,
| 31 , 34 ,
| 31 , 36 ,
| 31 , 37 ,
| 31 , 38 ,
| 31 , 39 ,
| 31 , 40 ,
| 31 , 42 ,
| 31 , 43 ,
| 31 , 45 ,
| 31 , 46 ,
| 31 , 47 ,
| 31 , 48 ,
| 31 , 50 ,
| 31 , 51 ,
| 31 , 52 ,
| 31 , 54 ,
| 32 , 33 ,
| 32 , 34 ,
| 32 , 36 ,
| 32 , 37 ,
| 32 , 40 ,
| 32 , 41 ,
| 32 , 42 ,
| 32 , 45 ,
| 32 , 46 ,
| 32 , 48 ,
| 32 , 49 ,
| 32 , 52 ,
| 32 , 53 ,
| 32 , 54 ,
| 33 , 34 ,
| 33 , 35 ,
| 33 , 37 ,
| 33 , 38 ,
| 33 , 39 ,
| 33 , 41 ,
| 33 , 43 ,
| 33 , 44 ,
| 33 , 45 ,
| 33 , 46 ,
| 33 , 47 ,
| 33 , 49 ,
| 33 , 50 ,
| 33 , 54 ,
| 33 , 55 ,
| 34 , 38 ,
| 34 , 39 ,
| 34 , 40 ,
| 34 , 41 ,
| 34 , 44 ,
| 34 , 45 ,
| 34 , 46 ,
| 34 , 48 ,
| 34 , 49 ,
| 34 , 50 ,
| 34 , 51 ,
| 34 , 52 ,
| 34 , 53 ,
| 34 , 54 ,
| 34 , 55 ,
| 35 , 36 ,
| 35 , 39 ,
| 35 , 40 ,
| 35 , 41 ,
| 35 , 43 ,
| 35 , 45 ,
| 35 , 47 ,
| 35 , 49 ,
| 35 , 50 ,
| 35 , 51 ,
| 35 , 52 ,
| 35 , 53 ,
| 35 , 54 ,
| 35 , 55 ,
| 36 , 37 ,
| 36 , 38 ,
| 36 , 39 ,
| 36 , 41 ,
| 36 , 43 ,
| 36 , 44 ,
| 36 , 45 ,
| 36 , 46 ,
| 36 , 48 ,
| 36 , 49 ,
| 36 , 51 ,
| 36 , 52 ,
| 36 , 53 ,
| 36 , 54 ,
| 36 , 55 ,
| 37 , 38 ,
| 37 , 40 ,
| 37 , 41 ,
| 37 , 42 ,
| 37 , 43 ,
| 37 , 44 ,
| 37 , 46 ,
| 37 , 47 ,
| 37 , 50 ,
| 37 , 53 ,
| 37 , 54 ,
| 38 , 39 ,
| 38 , 40 ,
| 38 , 42 ,
| 38 , 43 ,
| 38 , 44 ,
| 38 , 47 ,
| 38 , 48 ,
| 38 , 49 ,
| 38 , 50 ,
| 38 , 51 ,
| 38 , 53 ,
| 38 , 55 ,
| 39 , 40 ,
| 39 , 41 ,
| 39 , 43 ,
| 39 , 48 ,
| 39 , 49 ,
| 39 , 50 ,
| 39 , 51 ,
| 39 , 52 ,
| 39 , 53 ,
| 39 , 54 ,
| 39 , 55 ,
| 40 , 41 ,
| 40 , 42 ,
| 40 , 43 ,
| 40 , 44 ,
| 40 , 45 ,
| 40 , 46 ,
| 40 , 47 ,
| 40 , 48 ,
| 40 , 51 ,
| 40 , 53 ,
| 40 , 54 ,
| 40 , 55 ,
| 41 , 44 ,
| 41 , 45 ,
| 41 , 48 ,
| 41 , 49 ,
| 41 , 51 ,
| 41 , 52 ,
| 41 , 53 ,
| 41 , 55 ,
| 42 , 43 ,
| 42 , 47 ,
| 42 , 48 ,
| 42 , 49 ,
| 42 , 50 ,
| 42 , 51 ,
| 42 , 52 ,
| 42 , 54 ,
| 42 , 55 ,
| 43 , 44 ,
| 43 , 45 ,
| 43 , 47 ,
| 43 , 48 ,
| 43 , 50 ,
| 43 , 51 ,
| 43 , 52 ,
| 43 , 53 ,
| 43 , 54 ,
| 43 , 55 ,
| 44 , 45 ,
| 44 , 46 ,
| 44 , 47 ,
| 44 , 48 ,
| 44 , 49 ,
| 44 , 50 ,
| 44 , 51 ,
| 44 , 52 ,
| 44 , 53 ,
| 44 , 54 ,
| 45 , 47 ,
| 45 , 48 ,
| 45 , 51 ,
| 45 , 52 ,
| 45 , 54 ,
| 46 , 47 ,
| 46 , 48 ,
| 46 , 51 ,
| 46 , 53 ,
| 46 , 55 ,
| 47 , 48 ,
| 47 , 49 ,
| 47 , 50 ,
| 47 , 52 ,
| 47 , 53 ,
| 47 , 54 ,
| 47 , 55 ,
| 48 , 49 ,
| 48 , 51 ,
| 48 , 52 ,
| 48 , 53 ,
| 49 , 50 ,
| 49 , 51 ,
| 49 , 53 ,
| 50 , 51 ,
| 50 , 53 ,
| 50 , 54 ,
| 51 , 52 ,
| 51 , 53 ,
| 51 , 55 ,
| 52 , 53 ,
| 52 , 54 ,
| 52 , 55 ,
| 53 , 55 ,
| 54 , 55 ,
|];

